NAME : PR75C.124509.tour
COMMENT : Cost = 0_124509
COMMENT : Found by LKH [Keld Helsgaun] Sun Sep 17 16:52:40 2017
TYPE : TOUR
DIMENSION : 75
TOUR_SECTION
1
75
74
8
7
6
5
3
4
23
45
43
47
48
51
52
53
57
56
62
61
60
58
59
40
39
33
32
31
34
38
37
35
36
18
17
16
15
73
14
13
12
11
9
10
20
19
30
29
28
27
42
41
54
55
63
72
71
70
64
65
50
49
66
69
67
68
46
44
26
25
24
21
22
2
-1
EOF
